(declare-fun var0 () String)
(assert (RegexIn var0 (RegexConcat (RegexPlus (RegexUnion (RegexUnion (RegexStar (RegexStar (RegexStar (RegexPlus (RegexPlus (RegexStar (RegexPlus (RegexStar (RegexPlus (RegexUnion (RegexPlus (RegexUnion (Str2Reg "?????") (Str2Reg "@@@@"))) (RegexPlus (RegexUnion (Str2Reg "[[[[") (Str2Reg "\\\\"))))))))))))) (RegexPlus (RegexStar (RegexStar (RegexPlus (RegexPlus (RegexUnion (RegexUnion (RegexPlus (RegexPlus (RegexStar (RegexStar (RegexStar (Str2Reg "]]]]")))))) (RegexPlus (RegexUnion (RegexPlus (RegexUnion (RegexPlus (Str2Reg "^^^")) (RegexUnion (Str2Reg "____") (Str2Reg "````")))) (RegexPlus (RegexStar (RegexUnion (Str2Reg "{{{{{") (Str2Reg "||||"))))))) (RegexPlus (RegexStar (RegexPlus (RegexUnion (RegexStar (RegexUnion (Str2Reg "}}}") (Str2Reg "~~~"))) (RegexStar (RegexPlus (Str2Reg "00000")))))))))))))) (RegexPlus (RegexPlus (RegexPlus (RegexStar (RegexUnion (RegexStar (RegexPlus (RegexPlus (RegexStar (RegexPlus (RegexUnion (RegexUnion (RegexPlus (Str2Reg "111")) (RegexPlus (Str2Reg "22222"))) (RegexPlus (RegexUnion (Str2Reg "333") (Str2Reg "444"))))))))) (RegexPlus (RegexStar (RegexUnion (RegexStar (RegexUnion (RegexStar (RegexPlus (RegexUnion (Str2Reg "55555") (Str2Reg "66666")))) (RegexUnion (RegexPlus (RegexStar (Str2Reg "77777"))) (RegexUnion (RegexStar (Str2Reg "888")) (RegexStar (Str2Reg "999")))))) (RegexUnion (RegexUnion (RegexStar (RegexUnion (RegexStar (Str2Reg "aaaaa")) (RegexStar (Str2Reg "bbbbb")))) (RegexStar (RegexStar (RegexUnion (Str2Reg "cccc") (Str2Reg "ddd"))))) (RegexPlus (RegexUnion (RegexPlus (RegexStar (Str2Reg "eee"))) (RegexPlus (RegexUnion (Str2Reg "fff") (Str2Reg "gg")))))))))))))))) (RegexStar (RegexPlus (RegexUnion (RegexPlus (RegexUnion (RegexStar (RegexPlus (RegexStar (RegexPlus (RegexUnion (RegexUnion (RegexUnion (RegexStar (RegexStar (RegexUnion (Str2Reg "0000") (Str2Reg "111")))) (RegexStar (RegexUnion (RegexStar (Str2Reg "22222")) (RegexUnion (Str2Reg "3333") (Str2Reg "44"))))) (RegexUnion (RegexPlus (RegexStar (RegexStar (Str2Reg "5555")))) (RegexUnion (RegexUnion (RegexPlus (Str2Reg "66")) (RegexUnion (Str2Reg "777") (Str2Reg "88"))) (RegexPlus (RegexUnion (Str2Reg "9999") (Str2Reg "aaa")))))) (RegexStar (RegexUnion (RegexStar (RegexStar (RegexPlus (Str2Reg "bbbbb")))) (RegexUnion (RegexStar (RegexUnion (Str2Reg "cccc") (Str2Reg "ddd"))) (RegexUnion (RegexUnion (Str2Reg "eeee") (Str2Reg "fff")) (RegexUnion (Str2Reg "ggggg") (Str2Reg "hhhhh"))))))))))) (RegexStar (RegexUnion (RegexStar (RegexPlus (RegexUnion (RegexStar (RegexPlus (RegexUnion (RegexPlus (RegexPlus (Str2Reg "iiiii"))) (RegexPlus (RegexUnion (Str2Reg "jjjjj") (Str2Reg "kkkkk")))))) (RegexUnion (RegexPlus (RegexStar (RegexPlus (RegexStar (Str2Reg "lllll"))))) (RegexPlus (RegexUnion (RegexPlus (RegexPlus (Str2Reg "mm"))) (RegexPlus (RegexStar (Str2Reg "nnnn"))))))))) (RegexStar (RegexUnion (RegexPlus (RegexUnion (RegexPlus (RegexUnion (RegexPlus (RegexStar (Str2Reg "oooo"))) (RegexStar (RegexPlus (Str2Reg "pppp"))))) (RegexStar (RegexPlus (RegexStar (RegexStar (Str2Reg "qqq"))))))) (RegexUnion (RegexPlus (RegexStar (RegexStar (RegexStar (RegexPlus (Str2Reg "rrrrr")))))) (RegexPlus (RegexPlus (RegexStar (RegexStar (RegexUnion (Str2Reg "ss") (Str2Reg "ttttt"))))))))))))) (RegexUnion (RegexStar (RegexUnion (RegexPlus (RegexUnion (RegexUnion (RegexPlus (RegexPlus (RegexStar (RegexStar (RegexPlus (RegexUnion (Str2Reg "uuuu") (Str2Reg "vvv"))))))) (RegexPlus (RegexUnion (RegexStar (RegexUnion (RegexPlus (RegexUnion (Str2Reg "www") (Str2Reg "xxx"))) (RegexPlus (RegexPlus (Str2Reg "yyyyy"))))) (RegexPlus (RegexStar (RegexUnion (RegexStar (Str2Reg "zz")) (RegexPlus (Str2Reg "AAAAA")))))))) (RegexStar (RegexUnion (RegexStar (RegexStar (RegexStar (RegexStar (RegexStar (Str2Reg "BBBB")))))) (RegexStar (RegexStar (RegexUnion (RegexUnion (RegexUnion (Str2Reg "CCC") (Str2Reg "DDDDD")) (RegexStar (Str2Reg "EEEEE"))) (RegexUnion (RegexPlus (Str2Reg "FFFFF")) (RegexStar (Str2Reg "GGGG")))))))))) (RegexStar (RegexUnion (RegexUnion (RegexStar (RegexUnion (RegexUnion (RegexUnion (RegexPlus (RegexStar (Str2Reg "HHH"))) (RegexStar (RegexUnion (Str2Reg "III") (Str2Reg "JJJJ")))) (RegexStar (RegexUnion (RegexStar (Str2Reg "KKKKK")) (RegexPlus (Str2Reg "LLLLL"))))) (RegexStar (RegexPlus (RegexStar (RegexStar (Str2Reg "MM"))))))) (RegexStar (RegexPlus (RegexStar (RegexPlus (RegexUnion (RegexStar (Str2Reg "NNNN")) (RegexPlus (Str2Reg "OOOO")))))))) (RegexPlus (RegexPlus (RegexStar (RegexStar (RegexPlus (RegexPlus (RegexUnion (Str2Reg "PPPPP") (Str2Reg "QQQQQ")))))))))))) (RegexUnion (RegexUnion (RegexPlus (RegexStar (RegexUnion (RegexPlus (RegexStar (RegexStar (RegexPlus (RegexStar (RegexUnion (Str2Reg "RRRR") (Str2Reg "SSSSS"))))))) (RegexPlus (RegexUnion (RegexPlus (RegexPlus (RegexPlus (RegexUnion (Str2Reg "TTTTT") (Str2Reg "UUUU"))))) (RegexPlus (RegexPlus (RegexStar (RegexUnion (Str2Reg "VVV") (Str2Reg "WWWWW")))))))))) (RegexStar (RegexPlus (RegexPlus (RegexUnion (RegexPlus (RegexStar (RegexStar (RegexStar (RegexStar (Str2Reg "XXXXX")))))) (RegexStar (RegexPlus (RegexStar (RegexStar (RegexStar (Str2Reg "YYYYY"))))))))))) (RegexPlus (RegexStar (RegexUnion (RegexStar (RegexUnion (RegexStar (RegexUnion (RegexPlus (RegexUnion (RegexUnion (Str2Reg "ZZ") (Str2Reg "!!!!")) (RegexUnion (Str2Reg "\"\"") (Str2Reg "####")))) (RegexStar (RegexStar (RegexUnion (Str2Reg "$$$$$") (Str2Reg "%%")))))) (RegexUnion (RegexPlus (RegexPlus (RegexUnion (RegexPlus (Str2Reg "&&")) (RegexUnion (Str2Reg "'''") (Str2Reg "((("))))) (RegexUnion (RegexPlus (RegexUnion (RegexUnion (Str2Reg ")))))") (Str2Reg "****")) (RegexPlus (Str2Reg "+++")))) (RegexStar (RegexStar (RegexUnion (Str2Reg ",,,,,") (Str2Reg "-----")))))))) (RegexPlus (RegexPlus (RegexStar (RegexUnion (RegexUnion (RegexPlus (RegexStar (Str2Reg "....."))) (RegexStar (RegexUnion (Str2Reg "//") (Str2Reg "::::")))) (RegexUnion (RegexUnion (RegexPlus (Str2Reg ";;")) (RegexUnion (Str2Reg "<<") (Str2Reg "==="))) (RegexPlus (RegexPlus (Str2Reg ">>")))))))))))))))))))
(assert (<= 15 (Length var0)))
(check-sat)